
******************************************************************************
This program contains Ipopt, a library for large-scale nonlinear optimization.
 Ipopt is released as open source code under the Eclipse Public License (EPL).
         For more information visit http://projects.coin-or.org/Ipopt
******************************************************************************

This is Ipopt version trunk, running with linear solver mumps.
NOTE: Other linear solvers might be more efficient (see Ipopt documentation).

Number of nonzeros in equality constraint Jacobian...:   330624
Number of nonzeros in inequality constraint Jacobian.:        0
Number of nonzeros in Lagrangian Hessian.............:        0

Total number of variables............................:      656
                     variables with only lower bounds:        0
                variables with lower and upper bounds:      656
                     variables with only upper bounds:        0
Total number of equality constraints.................:      504
Total number of inequality constraints...............:        0
        inequality constraints with only lower bounds:        0
   inequality constraints with lower and upper bounds:        0
        inequality constraints with only upper bounds:        0

iter    objective    inf_pr   inf_du lg(mu)  ||d||  lg(rg) alpha_du alpha_pr  ls
   0  7.5162706e+00 2.29e+02 9.02e-01   0.0 0.00e+00    -  0.00e+00 0.00e+00   0
   1  1.0005977e+01 2.38e-01 1.29e+00   2.9 1.30e+00    -  9.98e-01 1.00e+00h  1
   2  1.0805063e+01 2.63e-01 1.19e+00   0.9 3.63e+00    -  9.98e-01 1.25e-01h  4
   3  2.0901298e+01 2.06e-01 2.79e+00  -1.1 2.88e+00    -  9.98e-01 1.00e+00H  1
   4  2.0580183e+01 1.41e-01 1.65e+00  -3.1 6.06e-01    -  9.98e-01 1.00e+00f  1
   5  1.6816270e+01 1.23e-01 6.53e-01  -4.9 8.22e-01    -  1.00e+00 1.00e+00f  1
   6  1.4000408e+01 5.50e-01 1.47e+00  -6.8 1.52e+00    -  1.00e+00 1.00e+00f  1
   7  1.3853757e+01 9.27e-02 7.86e-01  -6.9 4.41e-01    -  1.00e+00 1.00e+00f  1
   8  2.0307386e+01 8.60e-02 1.17e+00  -8.7 1.19e+00    -  1.00e+00 1.00e+00H  1
   9  1.6458865e+01 1.10e-01 7.11e-01 -10.6 4.64e-01    -  1.00e+00 1.00e+00f  1
iter    objective    inf_pr   inf_du lg(mu)  ||d||  lg(rg) alpha_du alpha_pr  ls
  10  1.4794596e+01 5.50e-02 9.13e-01 -10.7 4.02e-01    -  1.00e+00 1.00e+00f  1
  11  1.4420986e+01 3.32e-02 5.28e-01 -11.0 2.96e-01    -  1.00e+00 1.00e+00h  1
  12  1.5386903e+01 2.52e-03 4.87e-01 -11.0 3.06e-01    -  1.00e+00 1.00e+00H  1
  13  1.6673918e+01 2.09e-03 7.97e-01 -11.0 3.74e-01    -  1.00e+00 1.00e+00H  1
  14  1.8043158e+01 7.54e-04 7.02e-01 -11.0 4.55e-01    -  1.00e+00 1.00e+00H  1
  15  1.7656870e+01 5.54e-02 7.60e-01 -11.0 3.05e-01    -  1.00e+00 1.00e+00f  1
  16  1.7645482e+01 2.78e-02 1.95e+00 -11.0 9.01e-01    -  1.00e+00 1.00e+00F  1
  17  1.5998350e+01 5.40e-02 1.00e+00 -11.0 4.66e-01    -  1.00e+00 1.00e+00f  1
  18  1.5693601e+01 1.15e-01 7.06e-01 -11.0 1.97e+00    -  1.00e+00 2.50e-01f  3
  19  1.9703937e+01 2.87e-02 1.46e+00 -11.0 7.24e-01    -  1.00e+00 1.00e+00H  1
iter    objective    inf_pr   inf_du lg(mu)  ||d||  lg(rg) alpha_du alpha_pr  ls
  20  2.1318434e+01 9.19e-03 1.88e+00 -11.0 4.55e-01    -  1.00e+00 1.00e+00H  1
  21  3.3331324e+01 1.37e-02 2.17e+00 -11.0 1.37e+00    -  1.00e+00 1.00e+00H  1
  22  2.7385877e+01 3.58e-03 1.82e+00 -11.0 5.66e-01    -  1.00e+00 1.00e+00F  1
  23  2.6447570e+01 3.29e-03 1.69e+00 -11.0 5.46e+00    -  1.00e+00 1.56e-02f  7
  24  2.4970853e+01 5.65e-03 1.55e+00 -11.0 3.38e+00    -  1.00e+00 3.12e-02f  6
  25  1.9569319e+01 8.79e-02 8.93e-01 -11.0 1.93e+00    -  1.00e+00 2.50e-01f  3
  26  2.0538272e+01 1.43e-02 2.40e+00 -11.0 1.45e+00    -  1.00e+00 1.00e+00H  1
  27  1.7250470e+01 2.36e-01 1.04e+00 -11.0 5.86e-01    -  1.00e+00 1.00e+00f  1
  28  1.7829094e+01 7.90e-02 1.10e+00 -11.0 7.68e-01    -  1.00e+00 1.00e+00H  1
  29  1.8424375e+01 1.17e-02 1.61e+00 -11.0 5.20e-01    -  1.00e+00 1.00e+00H  1
iter    objective    inf_pr   inf_du lg(mu)  ||d||  lg(rg) alpha_du alpha_pr  ls
  30  1.7984659e+01 1.83e-02 7.15e-01 -11.0 6.12e-01    -  1.00e+00 1.00e+00F  1
  31  1.9643162e+01 4.05e-03 1.15e+00 -11.0 6.00e-01    -  1.00e+00 1.00e+00H  1
  32  2.4478924e+01 2.75e-03 2.52e+00 -11.0 7.32e-01    -  1.00e+00 1.00e+00H  1
  33  3.1411731e+01 9.02e-04 2.23e+00 -11.0 1.20e+00    -  1.00e+00 1.00e+00H  1
  34  3.1386961e+01 1.63e-03 2.22e+00 -11.0 2.67e+00    -  1.00e+00 1.56e-02f  7
  35  3.0900556e+01 3.32e-03 2.16e+00 -11.0 3.03e+00    -  1.00e+00 1.56e-02f  7
  36  3.0580621e+01 3.53e-03 2.14e+00 -11.0 2.68e+00    -  1.00e+00 7.81e-03f  8
  37  3.0410290e+01 3.55e-03 2.12e+00 -11.0 2.54e+00    -  1.00e+00 3.91e-03f  9
  38  3.0238647e+01 3.54e-03 2.11e+00 -11.0 2.18e+00    -  1.00e+00 3.91e-03f  9
  39  1.9927441e+01 6.16e-01 1.21e+00 -11.0 2.17e+00    -  1.00e+00 5.00e-01f  2
iter    objective    inf_pr   inf_du lg(mu)  ||d||  lg(rg) alpha_du alpha_pr  ls
  40  2.7353945e+01 2.38e-01 2.46e+00 -11.0 1.00e+00    -  1.00e+00 1.00e+00H  1
  41  2.6569913e+01 2.39e-01 2.49e+00 -11.0 6.76e-01    -  1.00e+00 1.00e+00f  1
  42  2.1399342e+01 9.48e-01 1.88e+00 -11.0 1.34e+00    -  1.00e+00 1.00e+00f  1
  43  1.7961875e+01 2.42e-01 1.34e+00 -11.0 5.93e-01    -  1.00e+00 1.00e+00f  1
  44  2.2119363e+01 1.12e-01 2.83e+00 -11.0 9.69e-01    -  1.00e+00 1.00e+00H  1
  45  1.8672698e+01 4.23e-02 1.05e+00 -11.0 7.18e-01    -  1.00e+00 1.00e+00F  1
  46  1.7436776e+01 1.55e-01 1.06e+00 -11.0 1.88e+00    -  1.00e+00 2.50e-01f  3
  47  2.0169585e+01 1.10e-01 1.19e+00 -11.0 1.00e+00    -  1.00e+00 1.00e+00H  1
  48  1.8446790e+01 1.07e-01 1.09e+00 -11.0 4.46e-01    -  1.00e+00 1.00e+00f  1
  49  1.9858490e+01 6.65e-02 1.62e+00 -11.0 1.23e+00    -  1.00e+00 1.00e+00H  1
iter    objective    inf_pr   inf_du lg(mu)  ||d||  lg(rg) alpha_du alpha_pr  ls
  50  1.7140965e+01 1.26e-01 1.64e+00 -11.0 5.24e-01    -  1.00e+00 1.00e+00f  1
  51  2.0262318e+01 7.35e-02 3.42e+00 -11.0 1.18e+00    -  1.00e+00 1.00e+00H  1
  52  1.6273528e+01 2.54e-01 1.04e+00 -11.0 6.06e-01    -  1.00e+00 1.00e+00f  1
  53  1.5622364e+01 1.18e-01 4.97e-01 -11.0 3.89e-01    -  1.00e+00 1.00e+00f  1
  54  1.5655442e+01 2.62e-02 4.76e-01 -11.0 2.40e-01    -  1.00e+00 1.00e+00h  1
  55  1.5849250e+01 3.95e-02 5.30e-01 -11.0 2.74e-01    -  1.00e+00 1.00e+00h  1
  56  1.6318316e+01 2.09e-03 5.20e-01 -11.0 2.93e-01    -  1.00e+00 1.00e+00H  1
  57  1.7798177e+01 1.90e-03 9.53e-01 -11.0 4.64e-01    -  1.00e+00 1.00e+00H  1
  58  1.7788465e+01 2.81e-03 9.28e-01 -11.0 3.13e-01    -  1.00e+00 1.25e-01f  4
  59  1.7434598e+01 7.16e-02 9.58e-01 -11.0 1.50e+00    -  1.00e+00 2.50e-01f  3
iter    objective    inf_pr   inf_du lg(mu)  ||d||  lg(rg) alpha_du alpha_pr  ls
  60  2.1962821e+01 5.13e-02 1.59e+00 -11.0 7.22e-01    -  1.00e+00 1.00e+00H  1
  61  2.0302747e+01 7.84e-02 1.29e+00 -11.0 3.03e-01    -  1.00e+00 1.00e+00f  1
  62  1.8606623e+01 7.92e-02 1.03e+00 -11.0 1.67e+00    -  1.00e+00 1.25e-01f  4
  63  2.0251461e+01 7.54e-02 1.70e+00 -11.0 1.24e+00    -  1.00e+00 1.00e+00H  1
  64  1.8398414e+01 1.36e-02 1.35e+00 -11.0 4.45e-01    -  1.00e+00 1.00e+00F  1
  65  1.9344930e+01 1.20e-02 2.22e+00 -11.0 1.34e+00    -  1.00e+00 1.00e+00H  1
  66  1.6656510e+01 1.51e-01 1.22e+00 -11.0 4.17e-01    -  1.00e+00 1.00e+00f  1
  67  1.6480971e+01 1.94e-01 7.79e-01 -11.0 4.62e-01    -  1.00e+00 1.00e+00f  1
  68  1.6598589e+01 6.63e-02 9.16e-01 -11.0 2.82e-01    -  1.00e+00 1.00e+00h  1
  69  1.8881709e+01 2.10e-03 1.28e+00 -11.0 5.78e-01    -  1.00e+00 1.00e+00H  1
iter    objective    inf_pr   inf_du lg(mu)  ||d||  lg(rg) alpha_du alpha_pr  ls
  70  1.8033616e+01 3.22e-03 1.08e+00 -11.0 3.33e-01    -  1.00e+00 1.00e+00F  1
  71  1.7294303e+01 2.09e-02 8.38e-01 -11.0 1.33e+00    -  1.00e+00 1.25e-01f  4
  72  2.0353794e+01 2.73e-03 1.27e+00 -11.0 8.06e-01    -  1.00e+00 1.00e+00H  1
  73  1.8415162e+01 2.06e-03 1.17e+00 -11.0 3.15e-01    -  1.00e+00 1.00e+00F  1
  74  1.7508795e+01 7.59e-03 1.25e+00 -11.0 7.70e-01    -  1.00e+00 1.00e+00F  1
  75  1.8614380e+01 2.02e-02 9.66e-01 -11.0 4.62e-01    -  1.00e+00 1.00e+00H  1
  76  1.9953128e+01 7.23e-03 1.41e+00 -11.0 8.33e-01    -  1.00e+00 1.00e+00H  1
  77  2.0215236e+01 2.88e-03 1.51e+00 -11.0 5.24e-01    -  1.00e+00 1.00e+00H  1
  78  1.9915558e+01 4.64e-03 1.41e+00 -11.0 1.72e+00    -  1.00e+00 6.25e-02f  5
  79  1.9381529e+01 7.79e-03 1.26e+00 -11.0 1.18e+00    -  1.00e+00 6.25e-02f  5
iter    objective    inf_pr   inf_du lg(mu)  ||d||  lg(rg) alpha_du alpha_pr  ls
  80  1.8512112e+01 1.05e-02 1.09e+00 -11.0 1.03e+00    -  1.00e+00 1.00e+00F  1
  81  1.6543511e+01 3.70e-02 9.49e-01 -11.0 2.51e-01    -  1.00e+00 1.00e+00f  1
  82  1.7897249e+01 6.28e-03 1.78e+00 -11.0 7.25e-01    -  1.00e+00 1.00e+00H  1
  83  1.5913757e+01 1.47e-01 4.82e-01 -11.0 4.14e-01    -  1.00e+00 1.00e+00f  1
  84  1.6274820e+01 1.97e-02 6.63e-01 -11.0 4.56e-01    -  1.00e+00 1.00e+00H  1
  85  1.5807493e+01 1.41e-02 3.24e-01 -11.0 1.59e-01    -  1.00e+00 1.00e+00f  1
  86  1.6539450e+01 7.27e-03 5.02e-01 -11.0 4.74e-01    -  1.00e+00 1.00e+00H  1
  87  1.5844339e+01 9.94e-04 4.43e-01 -11.0 2.10e-01    -  1.00e+00 1.00e+00F  1
  88  1.5722097e+01 2.58e-02 1.58e-01 -11.0 4.51e-01    -  1.00e+00 5.00e-01f  2
  89  1.5661828e+01 7.60e-03 1.49e-01 -11.0 9.52e-02    -  1.00e+00 1.00e+00h  1
iter    objective    inf_pr   inf_du lg(mu)  ||d||  lg(rg) alpha_du alpha_pr  ls
  90  1.5729394e+01 1.17e-02 2.27e-01 -11.0 1.37e-01    -  1.00e+00 1.00e+00h  1
  91  1.5689416e+01 5.04e-03 1.13e-01 -11.0 8.19e-02    -  1.00e+00 1.00e+00h  1
  92  1.5734470e+01 4.40e-04 2.54e-01 -11.0 1.99e-01    -  1.00e+00 1.00e+00H  1
  93  1.5662620e+01 5.49e-03 2.17e-01 -11.0 9.37e-02    -  1.00e+00 1.00e+00f  1
  94  1.6253265e+01 4.45e-03 4.58e-01 -11.0 3.87e-01    -  1.00e+00 1.00e+00H  1
  95  1.5738446e+01 5.15e-04 1.93e-01 -11.0 2.02e-01    -  1.00e+00 1.00e+00F  1
  96  1.5665958e+01 5.06e-04 2.48e-01 -11.0 1.84e-01    -  1.00e+00 1.00e+00F  1
  97  1.5632201e+01 2.11e-03 6.44e-02 -11.0 6.85e-02    -  1.00e+00 1.00e+00f  1
  98  1.5635484e+01 2.79e-04 3.32e-02 -11.0 2.78e-02    -  1.00e+00 1.00e+00h  1
  99  1.5650373e+01 2.15e-06 3.56e-02 -11.0 8.01e-02    -  1.00e+00 1.00e+00H  1
iter    objective    inf_pr   inf_du lg(mu)  ||d||  lg(rg) alpha_du alpha_pr  ls
 100  1.5650519e+01 2.12e-06 3.54e-02 -11.0 1.45e-01    -  1.00e+00 1.56e-02h  7
 101  1.5650545e+01 2.10e-06 3.53e-02 -11.0 9.89e-01    -  1.00e+00 1.95e-03h 10
 102  1.5650607e+01 2.09e-06 3.52e-02 -11.0 2.19e+00    -  1.00e+00 9.77e-04h 11
 103  1.5650651e+01 2.09e-06 3.50e-02 -11.0 2.12e+00    -  1.00e+00 9.77e-04h 11
 104  1.5650655e+01 2.09e-06 3.50e-02 -11.0 5.35e+00    -  1.00e+00 1.22e-04h 14
 105  1.5650634e+01 1.07e-04 3.16e-02 -11.0 5.59e+00    -  1.00e+00 3.12e-02f  6
 106  1.5650643e+01 1.07e-04 3.15e-02 -11.0 6.19e+00    -  1.00e+00 6.10e-05h 15
 107r 1.5650643e+01 1.07e-04 9.99e+02  -4.0 0.00e+00    -  0.00e+00 1.82e-12R 40
 108r 1.5650632e+01 3.14e-05 2.68e-02  -9.0 1.07e-01    -  1.00e+00 9.90e-04f  1
 109  1.5650644e+01 3.14e-05 1.00e+00 -11.0 3.58e+00    -  1.00e+00 1.22e-04h 14
iter    objective    inf_pr   inf_du lg(mu)  ||d||  lg(rg) alpha_du alpha_pr  ls
 110r 1.5650644e+01 3.14e-05 9.99e+02  -4.6 0.00e+00    -  0.00e+00 4.55e-13R 42
 111r 1.5650633e+01 7.87e-06 1.53e-02  -9.0 2.69e-02    -  1.00e+00 9.90e-04f  1
 112  1.5650643e+01 7.87e-06 1.00e+00 -11.0 4.18e+00    -  1.00e+00 6.10e-05h 15
 113r 1.5650643e+01 7.87e-06 9.99e+02  -5.2 0.00e+00    -  0.00e+00 2.27e-13R 43
 114r 1.5650637e+01 1.99e-06 1.30e-02  -9.0 1.44e-02    -  1.00e+00 9.90e-04f  1
 115  1.5650646e+01 1.99e-06 1.00e+00 -11.0 3.25e+00    -  1.00e+00 6.10e-05h 15
 116r 1.5650646e+01 1.99e-06 9.99e+02  -5.8 0.00e+00    -  0.00e+00 1.14e-13R 44
 117r 1.5650646e+01 5.03e-07 1.45e-03  -9.0 1.96e-03    -  1.00e+00 9.90e-04f  1
 118  1.5650650e+01 5.03e-07 1.00e+00 -11.0 3.35e+00    -  1.00e+00 3.05e-05h 16
 119r 1.5650650e+01 5.03e-07 9.99e+02  -6.4 0.00e+00    -  0.00e+00 2.84e-14R 46
iter    objective    inf_pr   inf_du lg(mu)  ||d||  lg(rg) alpha_du alpha_pr  ls
 120r 1.5650650e+01 1.27e-07 5.56e-04  -9.0 6.28e-04    -  1.00e+00 9.90e-04f  1
 121  1.5650674e+01 1.28e-07 1.00e+00 -11.0 2.63e+00    -  1.00e+00 2.44e-04h 13
Restoration phase is called at point that is almost feasible,
  with constraint violation 2.854690e-05. Abort.

Number of Iterations....: 121

                                   (scaled)                 (unscaled)
Objective...............:   1.5650674415006625e+01    1.5650674415006625e+01
Dual infeasibility......:   1.0033894389321412e+00    1.0033894389321412e+00
Constraint violation....:   1.0926439089232433e-07    1.2760246281828813e-07
Complementarity.........:   1.0000262869119269e-11    1.0000262869119269e-11
Overall NLP error.......:   1.0033894389321412e+00    1.0033894389321412e+00


Number of objective function evaluations             = 818
Number of objective gradient evaluations             = 123
Number of equality constraint evaluations            = 818
Number of inequality constraint evaluations          = 0
Number of equality constraint Jacobian evaluations   = 128
Number of inequality constraint Jacobian evaluations = 0
Number of Lagrangian Hessian evaluations             = 0
Total CPU secs in IPOPT (w/o function evaluations)   =     62.410
Total CPU secs in NLP function evaluations           =     37.177

EXIT: Restoration Failed!
